
Gurobi 11.0.1 (win64) logging started Mon May 13 14:55:25 2024

Set parameter LogFile to value "output/solver_log8.txt"
Gurobi Optimizer version 11.0.1 build v11.0.1rc0 (win64 - Windows 11.0 (22631.2))

CPU model: 11th Gen Intel(R) Core(TM) i7-1165G7 @ 2.80GHz, instruction set [SSE2|AVX|AVX2|AVX512]
Thread count: 4 physical cores, 8 logical processors, using up to 8 threads

Optimize a model with 1113 rows, 256 columns and 20544 nonzeros
Model fingerprint: 0x5e43ecb3
Variable types: 88 continuous, 168 integer (168 binary)
Coefficient statistics:
  Matrix range     [4e-01, 1e+05]
  Objective range  [1e+00, 1e+02]
  Bounds range     [1e+00, 1e+00]
  RHS range        [1e-02, 1e+05]

User MIP start produced solution with objective 56500.9 (0.00s)
User MIP start produced solution with objective 56500.9 (0.00s)
Loaded user MIP start with objective 56500.9

Presolve removed 118 rows and 134 columns
Presolve time: 0.03s
Presolved: 995 rows, 122 columns, 19520 nonzeros
Variable types: 75 continuous, 47 integer (46 binary)

Explored 0 nodes (0 simplex iterations) in 0.05 seconds (0.09 work units)
Thread count was 8 (of 8 available processors)

Solution count 2: 56500.9 56500.9 

Optimal solution found (tolerance 1.00e-04)
Best objective 5.650094264241e+04, best bound 5.650094264241e+04, gap 0.0000%
